Second Year - 2020-2021/First Semester/Algorithm Analysis/Homework 2/sat_in/task3/16.cnf
p cnf 28 220
1 2 3 4 5 6 7 0
8 9 10 11 12 13 14 0
15 16 17 18 19 20 21 0
22 23 24 25 26 27 28 0
-1 -8 0
-2 -9 0
-3 -10 0
-4 -11 0
-5 -12 0
-6 -13 0
-7 -14 0
-1 -15 0
-2 -16 0
-3 -17 0
-4 -18 0
-5 -19 0
-6 -20 0
-7 -21 0
-1 -22 0
-2 -23 0
-3 -24 0
-4 -25 0
-5 -26 0
-6 -27 0
-7 -28 0
-8 -15 0
-9 -16 0
-10 -17 0
-11 -18 0
-12 -19 0
-13 -20 0
-14 -21 0
-8 -22 0
-9 -23 0
-10 -24 0
-11 -25 0
-12 -26 0
-13 -27 0
-14 -28 0
-15 -22 0
-16 -23 0
-17 -24 0
-18 -25 0
-19 -26 0
-20 -27 0
-21 -28 0
-1 -10 0
-1 -12 0
-1 -14 0
-2 -8 0
-2 -10 0
-3 -8 0
-3 -9 0
-4 -8 0
-4 -9 0
-4 -10 0
-4 -14 0
-5 -8 0
-5 -9 0
-5 -10 0
-5 -11 0
-5 -13 0
-5 -14 0
-6 -8 0
-6 -9 0
-6 -10 0
-6 -11 0
-6 -12 0
-6 -14 0
-7 -8 0
-7 -9 0
-7 -10 0
-7 -11 0
-7 -12 0
-7 -13 0
-1 -17 0
-1 -19 0
-1 -21 0
-2 -15 0
-2 -17 0
-3 -15 0
-3 -16 0
-4 -15 0
-4 -16 0
-4 -17 0
-4 -21 0
-5 -15 0
-5 -16 0
-5 -17 0
-5 -18 0
-5 -20 0
-5 -21 0
-6 -15 0
-6 -16 0
-6 -17 0
-6 -18 0
-6 -19 0
-6 -21 0
-7 -15 0
-7 -16 0
-7 -17 0
-7 -18 0
-7 -19 0
-7 -20 0
-1 -24 0
-1 -26 0
-1 -28 0
-2 -22 0
-2 -24 0
-3 -22 0
-3 -23 0
-4 -22 0
-4 -23 0
-4 -24 0
-4 -28 0
-5 -22 0
-5 -23 0
-5 -24 0
-5 -25 0
-5 -27 0
-5 -28 0
-6 -22 0
-6 -23 0
-6 -24 0
-6 -25 0
-6 -26 0
-6 -28 0
-7 -22 0
-7 -23 0
-7 -24 0
-7 -25 0
-7 -26 0
-7 -27 0
-8 -17 0
-8 -19 0
-8 -21 0
-9 -15 0
-9 -17 0
-10 -15 0
-10 -16 0
-11 -15 0
-11 -16 0
-11 -17 0
-11 -21 0
-12 -15 0
-12 -16 0
-12 -17 0
-12 -18 0
-12 -20 0
-12 -21 0
-13 -15 0
-13 -16 0
-13 -17 0
-13 -18 0
-13 -19 0
-13 -21 0
-14 -15 0
-14 -16 0
-14 -17 0
-14 -18 0
-14 -19 0
-14 -20 0
-8 -24 0
-8 -26 0
-8 -28 0
-9 -22 0
-9 -24 0
-10 -22 0
-10 -23 0
-11 -22 0
-11 -23 0
-11 -24 0
-11 -28 0
-12 -22 0
-12 -23 0
-12 -24 0
-12 -25 0
-12 -27 0
-12 -28 0
-13 -22 0
-13 -23 0
-13 -24 0
-13 -25 0
-13 -26 0
-13 -28 0
-14 -22 0
-14 -23 0
-14 -24 0
-14 -25 0
-14 -26 0
-14 -27 0
-15 -24 0
-15 -26 0
-15 -28 0
-16 -22 0
-16 -24 0
-17 -22 0
-17 -23 0
-18 -22 0
-18 -23 0
-18 -24 0
-18 -28 0
-19 -22 0
-19 -23 0
-19 -24 0
-19 -25 0
-19 -27 0
-19 -28 0
-20 -22 0
-20 -23 0
-20 -24 0
-20 -25 0
-20 -26 0
-20 -28 0
-21 -22 0
-21 -23 0
-21 -24 0
-21 -25 0
-21 -26 0
-21 -27 0
