Second Year/First Semester/Algorithm Analysis/Homework 2/sat_in/bonus/16.wcnf
p wcnf 7 15 49
49 1 3 0
49 1 5 0
49 1 7 0
49 2 3 0
49 4 7 0
49 5 6 0
49 5 7 0
49 6 7 0
5 -1 0
7 -2 0
8 -3 0
7 -4 0
6 -5 0
7 -6 0
8 -7 0
