Second Year/First Semester/Algorithm Analysis/Homework 2/out/task2/16.out
True
2 3 6 